DATASET = "thpack3";
INSTANCE = "048";

WIDTH = 233;
HEIGHT = 220;
LENGTH = 587;

NO_OF_SHAPES = 8;
size = [|
  59,49,48 |
  79,63,46 |
  95,58,38 |
  95,79,47 |
  72,46,27 |
  88,74,72 |
  90,77,67 |
  96,59,36 |
|];

verticality = [|
  1,1,1 |
  1,1,1 |
  0,1,1 |
  0,1,1 |
  0,1,1 |
  1,1,1 |
  1,1,1 |
  0,1,1 |
|];

box_count = [
  7,
  13,
  13,
  12,
  12,
  14,
  18,
  14,
];
